125.0 179.4
155.1 45.0
60.0 174.7
1.1 164.2
159.4 93.6
60.6 55.7
51.0 89.0
100.9 110.7
199.1 158.5
124.4 197.8
43.1 32.0
122.5 8.8
7.1 103.0
93.2 183.4
125.8 102.8
99.4 49.5
2.4 38.5
138.4 40.1
73.9 0.7
166.0 30.9
